10  5
 3  4  0  5  2 12  1  5  4 11  11 167  10
 1  5  0  4  2 16  3 11  4  8   2 175   5
 0  4  1  9  2 14  3  4  4 11   2 179  10
 1  7  3 10  2  9  0 11  4 16   7 173   5
 1  3  3  9  2 12  0 11  4 15   1 174   5
 1  6  0  6  2  8  3  7  4  9  15 182   5
 1  8  0  3  2 11  3  5  4  9   6 174   5
 3  9  0  6  2 14  1  7  4 12  16 170   5
 0 11  3  3  2 10  1  3  4  9  13 174   5
 0 10  3  5  2 10  1 10  4  9   3 181   5
